PatchBench/BenchmarksExist/FFmpeg/CWE-189-Numeric-Errors/CVE_2014_8546_e7e5114c506957f40aafd794e06de1a7e341e9d5/cinepak_decode_vectors_SnippetExist32_2.smt2
; benchmark generated from python API
(set-info :status unknown)
(declare-fun rdi () (_ BitVec 32))
(assert
 (let ((?x9 ((_ extract 31 0) rdi)))
 (let (($x163 (bvsle ?x9 (_ bv1 32))))
 (let ((?x84 (bvadd (_ bv4294967292 32) ?x9)))
 (let (($x157 (bvsle ?x84 (_ bv1 32))))
 (let (($x158 (not $x157)))
 (let (($x155 (bvsle ?x84 (_ bv2 32))))
 (let (($x156 (not $x155)))
 (let (($x153 (bvsle ?x84 (_ bv3 32))))
 (let (($x154 (not $x153)))
 (let (($x164 (not $x163)))
 (let (($x161 (bvsle ?x9 (_ bv2 32))))
 (let (($x162 (not $x161)))
 (let (($x159 (bvsle ?x9 (_ bv3 32))))
 (let (($x160 (not $x159)))
 (let (($x663 (or (and $x154 $x156 $x158 $x160 $x162 $x164) (and $x153 $x156 $x158 $x160 $x162 $x164) (and $x155 $x158 $x160 $x162 $x164) (and $x157 $x160 $x162 $x164) (and $x154 $x156 $x158 $x163))))
 (let (($x142 (= ((_ extract 31 1) rdi) (_ bv0 31))))
 (let (($x115 (= ((_ extract 31 1) ?x84) (_ bv0 31))))
 (let (($x121 (not $x115)))
 (let ((?x98 ((_ extract 1 0) rdi)))
 (let (($x105 (bvule ?x98 (_ bv2 2))))
 (let (($x92 (= ((_ extract 31 2) ?x84) (_ bv0 30))))
 (let (($x106 (and $x92 $x105)))
 (let (($x107 (not $x106)))
 (let (($x97 (not $x92)))
 (let (($x143 (not $x142)))
 (let (($x128 (= ((_ extract 31 2) rdi) (_ bv0 30))))
 (let (($x134 (and $x128 $x105)))
 (let (($x135 (not $x134)))
 (let (($x130 (not $x128)))
 (let (($x657 (or (and $x97 $x107 $x121 $x130 $x135 $x143) (and $x92 $x107 $x121 $x130 $x135 $x143) (and $x97 $x107 $x121 $x128 $x135 $x143) (and $x92 $x105 $x121 $x130 $x135 $x143) (and $x97 $x107 $x121 $x128 $x105 $x143) (and $x115 $x130 $x135 $x143) (and $x97 $x107 $x121 $x142))))
 (and $x657 $x663))))))))))))))))))))))))))))))))
(check-sat)

